c satplan version 1.0
c created: Thu Jul 24 14:13:58 PDT 1997
c operators: bw_orig.ops
c facts: anomaly.facts
c goal: 3
c wff: anomaly.cnf
c map: anomaly.map
c type: wff
p cnf 48 261
-1 -3 4 0
-1 -5 6 0
-8 -7 9 0
-8 -5 10 0
